c Standarized MaxSat Instance
c{
c "sha1sum": "65ad7a16817f03a50b652f7ed7a02e44b87fa782",
c "nvars": 60,
c "ncls": 1200,
c "nhards": 0,
c "nhard_len_stats":
c    { "min": 0, "max": 0, "ave": 0.00,
c      "stddev": 0.00 },
c "nsofts": 1200,
c "nsoft_len_stats":
c    { "min": 2, "max": 2, "ave": 2.00,
c      "stddev": 0.00 },
c "nsoft_wts": 10,
c "soft_wt_stats":
c    { "min": 1, "max": 10, "ave": 5.69,
c      "stddev": 2.81 }
c}
c------------------------------------------------------------
c Generated after 1 tries
c Graph with 60 nodes and 600 edges, Max edges:1770
p wcnf 60 1200 6827
9 1 2 0
9 -1 -2 0
4 1 7 0
4 -1 -7 0
8 1 10 0
8 -1 -10 0
8 1 12 0
8 -1 -12 0
10 1 19 0
10 -1 -19 0
2 1 21 0
2 -1 -21 0
4 1 23 0
4 -1 -23 0
8 1 25 0
8 -1 -25 0
3 1 28 0
3 -1 -28 0
6 1 30 0
6 -1 -30 0
5 1 37 0
5 -1 -37 0
7 1 40 0
7 -1 -40 0
4 1 41 0
4 -1 -41 0
6 1 42 0
6 -1 -42 0
10 1 45 0
10 -1 -45 0
10 1 47 0
10 -1 -47 0
7 2 4 0
7 -2 -4 0
8 2 6 0
8 -2 -6 0
2 2 16 0
2 -2 -16 0
7 2 21 0
7 -2 -21 0
1 2 25 0
1 -2 -25 0
3 2 32 0
3 -2 -32 0
2 2 34 0
2 -2 -34 0
9 2 37 0
9 -2 -37 0
2 2 40 0
2 -2 -40 0
5 2 44 0
5 -2 -44 0
2 2 48 0
2 -2 -48 0
2 2 49 0
2 -2 -49 0
10 2 59 0
10 -2 -59 0
3 2 60 0
3 -2 -60 0
6 3 7 0
6 -3 -7 0
9 3 16 0
9 -3 -16 0
7 3 20 0
7 -3 -20 0
3 3 24 0
3 -3 -24 0
7 3 26 0
7 -3 -26 0
6 3 30 0
6 -3 -30 0
5 3 33 0
5 -3 -33 0
10 3 35 0
10 -3 -35 0
3 3 38 0
3 -3 -38 0
8 3 40 0
8 -3 -40 0
6 3 46 0
6 -3 -46 0
8 3 47 0
8 -3 -47 0
5 3 48 0
5 -3 -48 0
9 3 49 0
9 -3 -49 0
3 3 51 0
3 -3 -51 0
4 3 53 0
4 -3 -53 0
9 3 60 0
9 -3 -60 0
10 4 6 0
10 -4 -6 0
1 4 7 0
1 -4 -7 0
10 4 8 0
10 -4 -8 0
6 4 9 0
6 -4 -9 0
1 4 11 0
1 -4 -11 0
2 4 19 0
2 -4 -19 0
7 4 20 0
7 -4 -20 0
9 4 25 0
9 -4 -25 0
4 4 26 0
4 -4 -26 0
1 4 29 0
1 -4 -29 0
1 4 32 0
1 -4 -32 0
5 4 34 0
5 -4 -34 0
1 4 37 0
1 -4 -37 0
3 4 43 0
3 -4 -43 0
10 4 46 0
10 -4 -46 0
10 4 47 0
10 -4 -47 0
9 4 48 0
9 -4 -48 0
3 4 51 0
3 -4 -51 0
6 5 7 0
6 -5 -7 0
4 5 18 0
4 -5 -18 0
8 5 20 0
8 -5 -20 0
6 5 21 0
6 -5 -21 0
7 5 24 0
7 -5 -24 0
6 5 27 0
6 -5 -27 0
1 5 31 0
1 -5 -31 0
5 5 33 0
5 -5 -33 0
10 5 45 0
10 -5 -45 0
10 5 46 0
10 -5 -46 0
8 5 48 0
8 -5 -48 0
3 5 52 0
3 -5 -52 0
8 5 57 0
8 -5 -57 0
7 5 60 0
7 -5 -60 0
4 6 9 0
4 -6 -9 0
7 6 11 0
7 -6 -11 0
2 6 12 0
2 -6 -12 0
5 6 14 0
5 -6 -14 0
9 6 17 0
9 -6 -17 0
9 6 18 0
9 -6 -18 0
4 6 21 0
4 -6 -21 0
3 6 24 0
3 -6 -24 0
9 6 28 0
9 -6 -28 0
4 6 39 0
4 -6 -39 0
7 6 41 0
7 -6 -41 0
10 6 44 0
10 -6 -44 0
6 6 45 0
6 -6 -45 0
7 6 46 0
7 -6 -46 0
9 6 47 0
9 -6 -47 0
5 6 49 0
5 -6 -49 0
10 6 53 0
10 -6 -53 0
4 6 54 0
4 -6 -54 0
9 6 55 0
9 -6 -55 0
7 6 56 0
7 -6 -56 0
10 6 58 0
10 -6 -58 0
5 6 59 0
5 -6 -59 0
3 6 60 0
3 -6 -60 0
10 7 8 0
10 -7 -8 0
10 7 16 0
10 -7 -16 0
2 7 17 0
2 -7 -17 0
9 7 18 0
9 -7 -18 0
7 7 19 0
7 -7 -19 0
5 7 20 0
5 -7 -20 0
7 7 21 0
7 -7 -21 0
3 7 26 0
3 -7 -26 0
8 7 30 0
8 -7 -30 0
4 7 32 0
4 -7 -32 0
5 7 37 0
5 -7 -37 0
3 7 39 0
3 -7 -39 0
2 7 43 0
2 -7 -43 0
3 7 45 0
3 -7 -45 0
6 7 46 0
6 -7 -46 0
5 7 56 0
5 -7 -56 0
2 7 59 0
2 -7 -59 0
10 8 11 0
10 -8 -11 0
2 8 13 0
2 -8 -13 0
2 8 14 0
2 -8 -14 0
5 8 15 0
5 -8 -15 0
8 8 17 0
8 -8 -17 0
10 8 28 0
10 -8 -28 0
10 8 29 0
10 -8 -29 0
7 8 30 0
7 -8 -30 0
4 8 31 0
4 -8 -31 0
8 8 35 0
8 -8 -35 0
4 8 37 0
4 -8 -37 0
3 8 39 0
3 -8 -39 0
3 8 40 0
3 -8 -40 0
6 8 47 0
6 -8 -47 0
3 8 48 0
3 -8 -48 0
2 8 49 0
2 -8 -49 0
8 8 50 0
8 -8 -50 0
2 8 54 0
2 -8 -54 0
8 8 55 0
8 -8 -55 0
2 8 59 0
2 -8 -59 0
8 8 60 0
8 -8 -60 0
1 9 10 0
1 -9 -10 0
10 9 11 0
10 -9 -11 0
1 9 12 0
1 -9 -12 0
6 9 15 0
6 -9 -15 0
2 9 17 0
2 -9 -17 0
3 9 20 0
3 -9 -20 0
8 9 23 0
8 -9 -23 0
8 9 26 0
8 -9 -26 0
7 9 28 0
7 -9 -28 0
10 9 29 0
10 -9 -29 0
7 9 30 0
7 -9 -30 0
8 9 32 0
8 -9 -32 0
1 9 33 0
1 -9 -33 0
2 9 38 0
2 -9 -38 0
6 9 39 0
6 -9 -39 0
1 9 40 0
1 -9 -40 0
1 9 42 0
1 -9 -42 0
3 9 47 0
3 -9 -47 0
5 9 49 0
5 -9 -49 0
9 9 50 0
9 -9 -50 0
6 9 53 0
6 -9 -53 0
8 9 56 0
8 -9 -56 0
1 9 57 0
1 -9 -57 0
2 9 58 0
2 -9 -58 0
10 9 59 0
10 -9 -59 0
3 9 60 0
3 -9 -60 0
9 10 15 0
9 -10 -15 0
2 10 19 0
2 -10 -19 0
10 10 25 0
10 -10 -25 0
1 10 33 0
1 -10 -33 0
9 10 36 0
9 -10 -36 0
1 10 41 0
1 -10 -41 0
1 10 42 0
1 -10 -42 0
10 10 43 0
10 -10 -43 0
6 10 46 0
6 -10 -46 0
2 10 49 0
2 -10 -49 0
2 10 53 0
2 -10 -53 0
4 10 56 0
4 -10 -56 0
10 10 57 0
10 -10 -57 0
9 10 59 0
9 -10 -59 0
4 10 60 0
4 -10 -60 0
6 11 15 0
6 -11 -15 0
6 11 16 0
6 -11 -16 0
5 11 18 0
5 -11 -18 0
7 11 21 0
7 -11 -21 0
1 11 26 0
1 -11 -26 0
6 11 27 0
6 -11 -27 0
8 11 36 0
8 -11 -36 0
4 11 40 0
4 -11 -40 0
10 11 41 0
10 -11 -41 0
6 11 42 0
6 -11 -42 0
9 11 46 0
9 -11 -46 0
8 11 49 0
8 -11 -49 0
7 11 50 0
7 -11 -50 0
1 11 55 0
1 -11 -55 0
8 11 56 0
8 -11 -56 0
9 11 58 0
9 -11 -58 0
10 12 13 0
10 -12 -13 0
9 12 15 0
9 -12 -15 0
9 12 16 0
9 -12 -16 0
10 12 20 0
10 -12 -20 0
8 12 23 0
8 -12 -23 0
10 12 26 0
10 -12 -26 0
10 12 29 0
10 -12 -29 0
7 12 32 0
7 -12 -32 0
5 12 33 0
5 -12 -33 0
2 12 34 0
2 -12 -34 0
9 12 35 0
9 -12 -35 0
9 12 39 0
9 -12 -39 0
1 12 43 0
1 -12 -43 0
7 12 45 0
7 -12 -45 0
3 12 50 0
3 -12 -50 0
7 12 51 0
7 -12 -51 0
3 12 53 0
3 -12 -53 0
8 12 59 0
8 -12 -59 0
4 13 15 0
4 -13 -15 0
4 13 19 0
4 -13 -19 0
3 13 20 0
3 -13 -20 0
1 13 22 0
1 -13 -22 0
7 13 36 0
7 -13 -36 0
3 13 37 0
3 -13 -37 0
7 13 38 0
7 -13 -38 0
6 13 40 0
6 -13 -40 0
10 13 45 0
10 -13 -45 0
3 13 50 0
3 -13 -50 0
6 13 53 0
6 -13 -53 0
8 13 58 0
8 -13 -58 0
2 13 59 0
2 -13 -59 0
5 13 60 0
5 -13 -60 0
6 14 15 0
6 -14 -15 0
10 14 17 0
10 -14 -17 0
5 14 18 0
5 -14 -18 0
4 14 22 0
4 -14 -22 0
9 14 23 0
9 -14 -23 0
5 14 24 0
5 -14 -24 0
1 14 25 0
1 -14 -25 0
4 14 27 0
4 -14 -27 0
6 14 29 0
6 -14 -29 0
9 14 30 0
9 -14 -30 0
3 14 33 0
3 -14 -33 0
7 14 35 0
7 -14 -35 0
5 14 42 0
5 -14 -42 0
5 14 44 0
5 -14 -44 0
4 14 49 0
4 -14 -49 0
8 14 50 0
8 -14 -50 0
2 14 52 0
2 -14 -52 0
7 14 60 0
7 -14 -60 0
1 15 17 0
1 -15 -17 0
5 15 19 0
5 -15 -19 0
7 15 21 0
7 -15 -21 0
7 15 23 0
7 -15 -23 0
7 15 24 0
7 -15 -24 0
4 15 28 0
4 -15 -28 0
2 15 35 0
2 -15 -35 0
7 15 37 0
7 -15 -37 0
7 15 44 0
7 -15 -44 0
8 15 52 0
8 -15 -52 0
4 15 55 0
4 -15 -55 0
8 15 57 0
8 -15 -57 0
3 15 58 0
3 -15 -58 0
10 15 59 0
10 -15 -59 0
7 15 60 0
7 -15 -60 0
7 16 17 0
7 -16 -17 0
3 16 22 0
3 -16 -22 0
6 16 33 0
6 -16 -33 0
1 16 35 0
1 -16 -35 0
3 16 43 0
3 -16 -43 0
9 16 45 0
9 -16 -45 0
7 16 46 0
7 -16 -46 0
1 16 55 0
1 -16 -55 0
2 16 58 0
2 -16 -58 0
4 17 24 0
4 -17 -24 0
6 17 25 0
6 -17 -25 0
6 17 28 0
6 -17 -28 0
7 17 29 0
7 -17 -29 0
3 17 32 0
3 -17 -32 0
8 17 33 0
8 -17 -33 0
3 17 34 0
3 -17 -34 0
4 17 36 0
4 -17 -36 0
2 17 37 0
2 -17 -37 0
10 17 41 0
10 -17 -41 0
1 17 42 0
1 -17 -42 0
9 17 44 0
9 -17 -44 0
4 17 47 0
4 -17 -47 0
2 17 48 0
2 -17 -48 0
5 17 49 0
5 -17 -49 0
10 17 51 0
10 -17 -51 0
10 17 57 0
10 -17 -57 0
8 17 58 0
8 -17 -58 0
7 17 60 0
7 -17 -60 0
2 18 19 0
2 -18 -19 0
7 18 20 0
7 -18 -20 0
4 18 24 0
4 -18 -24 0
8 18 27 0
8 -18 -27 0
10 18 31 0
10 -18 -31 0
10 18 40 0
10 -18 -40 0
9 18 47 0
9 -18 -47 0
3 18 54 0
3 -18 -54 0
8 18 55 0
8 -18 -55 0
6 18 60 0
6 -18 -60 0
3 19 21 0
3 -19 -21 0
10 19 23 0
10 -19 -23 0
10 19 26 0
10 -19 -26 0
9 19 27 0
9 -19 -27 0
5 19 28 0
5 -19 -28 0
6 19 29 0
6 -19 -29 0
2 19 30 0
2 -19 -30 0
3 19 34 0
3 -19 -34 0
9 19 37 0
9 -19 -37 0
5 19 40 0
5 -19 -40 0
5 19 46 0
5 -19 -46 0
9 19 51 0
9 -19 -51 0
5 19 53 0
5 -19 -53 0
3 19 54 0
3 -19 -54 0
2 19 56 0
2 -19 -56 0
7 19 57 0
7 -19 -57 0
8 19 60 0
8 -19 -60 0
2 20 21 0
2 -20 -21 0
7 20 26 0
7 -20 -26 0
5 20 27 0
5 -20 -27 0
9 20 29 0
9 -20 -29 0
8 20 30 0
8 -20 -30 0
2 20 39 0
2 -20 -39 0
3 20 43 0
3 -20 -43 0
5 20 46 0
5 -20 -46 0
2 20 49 0
2 -20 -49 0
2 20 51 0
2 -20 -51 0
4 20 52 0
4 -20 -52 0
4 20 54 0
4 -20 -54 0
10 20 60 0
10 -20 -60 0
10 21 22 0
10 -21 -22 0
7 21 23 0
7 -21 -23 0
9 21 24 0
9 -21 -24 0
9 21 27 0
9 -21 -27 0
5 21 29 0
5 -21 -29 0
4 21 33 0
4 -21 -33 0
4 21 35 0
4 -21 -35 0
7 21 37 0
7 -21 -37 0
7 21 38 0
7 -21 -38 0
3 21 40 0
3 -21 -40 0
2 21 41 0
2 -21 -41 0
1 21 43 0
1 -21 -43 0
2 21 46 0
2 -21 -46 0
7 21 49 0
7 -21 -49 0
4 21 51 0
4 -21 -51 0
3 21 53 0
3 -21 -53 0
4 21 56 0
4 -21 -56 0
1 21 59 0
1 -21 -59 0
5 22 25 0
5 -22 -25 0
10 22 26 0
10 -22 -26 0
6 22 32 0
6 -22 -32 0
3 22 36 0
3 -22 -36 0
7 22 38 0
7 -22 -38 0
8 22 39 0
8 -22 -39 0
5 22 41 0
5 -22 -41 0
2 22 42 0
2 -22 -42 0
9 22 43 0
9 -22 -43 0
7 22 47 0
7 -22 -47 0
6 22 49 0
6 -22 -49 0
3 22 55 0
3 -22 -55 0
6 22 57 0
6 -22 -57 0
5 23 24 0
5 -23 -24 0
9 23 28 0
9 -23 -28 0
4 23 29 0
4 -23 -29 0
3 23 32 0
3 -23 -32 0
4 23 35 0
4 -23 -35 0
8 23 40 0
8 -23 -40 0
7 23 42 0
7 -23 -42 0
10 23 45 0
10 -23 -45 0
4 23 49 0
4 -23 -49 0
9 23 51 0
9 -23 -51 0
2 23 52 0
2 -23 -52 0
5 23 56 0
5 -23 -56 0
1 23 57 0
1 -23 -57 0
8 24 28 0
8 -24 -28 0
8 24 33 0
8 -24 -33 0
3 24 35 0
3 -24 -35 0
2 24 39 0
2 -24 -39 0
9 24 41 0
9 -24 -41 0
8 24 42 0
8 -24 -42 0
1 24 43 0
1 -24 -43 0
5 24 45 0
5 -24 -45 0
10 24 47 0
10 -24 -47 0
8 24 49 0
8 -24 -49 0
3 24 56 0
3 -24 -56 0
5 24 57 0
5 -24 -57 0
9 25 36 0
9 -25 -36 0
1 25 37 0
1 -25 -37 0
1 25 39 0
1 -25 -39 0
4 25 45 0
4 -25 -45 0
4 25 49 0
4 -25 -49 0
7 25 51 0
7 -25 -51 0
9 25 56 0
9 -25 -56 0
2 25 57 0
2 -25 -57 0
1 25 59 0
1 -25 -59 0
1 25 60 0
1 -25 -60 0
5 26 29 0
5 -26 -29 0
8 26 35 0
8 -26 -35 0
7 26 37 0
7 -26 -37 0
5 26 39 0
5 -26 -39 0
2 26 40 0
2 -26 -40 0
6 26 41 0
6 -26 -41 0
6 26 43 0
6 -26 -43 0
6 26 44 0
6 -26 -44 0
6 26 46 0
6 -26 -46 0
4 26 47 0
4 -26 -47 0
4 26 50 0
4 -26 -50 0
9 26 54 0
9 -26 -54 0
5 27 28 0
5 -27 -28 0
2 27 29 0
2 -27 -29 0
7 27 38 0
7 -27 -38 0
6 27 40 0
6 -27 -40 0
7 27 42 0
7 -27 -42 0
6 27 43 0
6 -27 -43 0
3 27 44 0
3 -27 -44 0
9 27 48 0
9 -27 -48 0
1 27 50 0
1 -27 -50 0
1 27 51 0
1 -27 -51 0
10 27 52 0
10 -27 -52 0
2 27 54 0
2 -27 -54 0
5 27 55 0
5 -27 -55 0
3 27 56 0
3 -27 -56 0
9 27 57 0
9 -27 -57 0
3 27 60 0
3 -27 -60 0
4 28 29 0
4 -28 -29 0
9 28 31 0
9 -28 -31 0
4 28 32 0
4 -28 -32 0
9 28 41 0
9 -28 -41 0
7 28 44 0
7 -28 -44 0
1 28 45 0
1 -28 -45 0
3 28 49 0
3 -28 -49 0
8 28 51 0
8 -28 -51 0
7 28 52 0
7 -28 -52 0
9 28 55 0
9 -28 -55 0
4 28 60 0
4 -28 -60 0
3 29 44 0
3 -29 -44 0
2 29 47 0
2 -29 -47 0
7 29 48 0
7 -29 -48 0
2 29 49 0
2 -29 -49 0
7 29 50 0
7 -29 -50 0
8 29 51 0
8 -29 -51 0
8 29 53 0
8 -29 -53 0
3 29 55 0
3 -29 -55 0
5 29 56 0
5 -29 -56 0
4 29 58 0
4 -29 -58 0
5 29 60 0
5 -29 -60 0
3 30 33 0
3 -30 -33 0
4 30 34 0
4 -30 -34 0
6 30 37 0
6 -30 -37 0
2 30 40 0
2 -30 -40 0
6 30 41 0
6 -30 -41 0
1 30 43 0
1 -30 -43 0
4 30 46 0
4 -30 -46 0
4 30 47 0
4 -30 -47 0
4 30 49 0
4 -30 -49 0
8 30 50 0
8 -30 -50 0
3 30 54 0
3 -30 -54 0
7 31 33 0
7 -31 -33 0
6 31 41 0
6 -31 -41 0
10 31 51 0
10 -31 -51 0
7 32 34 0
7 -32 -34 0
9 32 36 0
9 -32 -36 0
7 32 37 0
7 -32 -37 0
4 32 39 0
4 -32 -39 0
7 32 42 0
7 -32 -42 0
1 32 43 0
1 -32 -43 0
6 32 44 0
6 -32 -44 0
9 32 46 0
9 -32 -46 0
7 32 48 0
7 -32 -48 0
7 32 49 0
7 -32 -49 0
6 32 51 0
6 -32 -51 0
5 32 53 0
5 -32 -53 0
4 32 57 0
4 -32 -57 0
8 32 59 0
8 -32 -59 0
9 33 36 0
9 -33 -36 0
7 33 38 0
7 -33 -38 0
2 33 39 0
2 -33 -39 0
1 33 44 0
1 -33 -44 0
1 33 45 0
1 -33 -45 0
7 33 47 0
7 -33 -47 0
2 33 49 0
2 -33 -49 0
7 33 54 0
7 -33 -54 0
8 34 38 0
8 -34 -38 0
6 34 43 0
6 -34 -43 0
1 34 58 0
1 -34 -58 0
1 34 59 0
1 -34 -59 0
4 34 60 0
4 -34 -60 0
3 35 37 0
3 -35 -37 0
7 35 38 0
7 -35 -38 0
9 35 46 0
9 -35 -46 0
2 35 51 0
2 -35 -51 0
4 35 56 0
4 -35 -56 0
7 35 60 0
7 -35 -60 0
9 36 39 0
9 -36 -39 0
7 36 40 0
7 -36 -40 0
4 36 44 0
4 -36 -44 0
9 36 45 0
9 -36 -45 0
2 36 47 0
2 -36 -47 0
2 36 48 0
2 -36 -48 0
6 36 50 0
6 -36 -50 0
9 36 51 0
9 -36 -51 0
7 36 53 0
7 -36 -53 0
10 36 56 0
10 -36 -56 0
2 36 59 0
2 -36 -59 0
4 37 45 0
4 -37 -45 0
8 37 51 0
8 -37 -51 0
9 37 58 0
9 -37 -58 0
6 37 60 0
6 -37 -60 0
8 38 39 0
8 -38 -39 0
10 38 50 0
10 -38 -50 0
3 38 51 0
3 -38 -51 0
10 38 53 0
10 -38 -53 0
6 38 54 0
6 -38 -54 0
10 38 55 0
10 -38 -55 0
5 38 58 0
5 -38 -58 0
6 38 59 0
6 -38 -59 0
10 38 60 0
10 -38 -60 0
8 39 40 0
8 -39 -40 0
9 39 42 0
9 -39 -42 0
6 39 44 0
6 -39 -44 0
7 39 50 0
7 -39 -50 0
10 39 52 0
10 -39 -52 0
10 39 58 0
10 -39 -58 0
4 40 41 0
4 -40 -41 0
9 40 43 0
9 -40 -43 0
6 40 48 0
6 -40 -48 0
7 40 49 0
7 -40 -49 0
8 40 50 0
8 -40 -50 0
8 40 53 0
8 -40 -53 0
8 40 57 0
8 -40 -57 0
3 40 59 0
3 -40 -59 0
7 40 60 0
7 -40 -60 0
5 41 43 0
5 -41 -43 0
2 41 44 0
2 -41 -44 0
8 41 45 0
8 -41 -45 0
9 41 46 0
9 -41 -46 0
9 41 52 0
9 -41 -52 0
7 41 55 0
7 -41 -55 0
5 41 58 0
5 -41 -58 0
7 42 43 0
7 -42 -43 0
6 42 44 0
6 -42 -44 0
7 42 45 0
7 -42 -45 0
6 42 46 0
6 -42 -46 0
2 42 48 0
2 -42 -48 0
6 42 50 0
6 -42 -50 0
1 42 51 0
1 -42 -51 0
8 42 54 0
8 -42 -54 0
6 42 59 0
6 -42 -59 0
9 43 44 0
9 -43 -44 0
6 43 48 0
6 -43 -48 0
2 43 51 0
2 -43 -51 0
5 43 54 0
5 -43 -54 0
6 43 55 0
6 -43 -55 0
1 43 57 0
1 -43 -57 0
9 43 59 0
9 -43 -59 0
4 44 46 0
4 -44 -46 0
7 44 47 0
7 -44 -47 0
5 44 50 0
5 -44 -50 0
2 44 52 0
2 -44 -52 0
5 44 56 0
5 -44 -56 0
3 44 60 0
3 -44 -60 0
5 45 46 0
5 -45 -46 0
1 45 48 0
1 -45 -48 0
8 45 51 0
8 -45 -51 0
6 45 52 0
6 -45 -52 0
9 45 55 0
9 -45 -55 0
6 46 55 0
6 -46 -55 0
5 47 48 0
5 -47 -48 0
5 47 54 0
5 -47 -54 0
10 47 60 0
10 -47 -60 0
1 48 51 0
1 -48 -51 0
1 48 53 0
1 -48 -53 0
7 48 54 0
7 -48 -54 0
6 48 55 0
6 -48 -55 0
3 48 57 0
3 -48 -57 0
3 49 51 0
3 -49 -51 0
7 49 55 0
7 -49 -55 0
10 49 56 0
10 -49 -56 0
8 50 51 0
8 -50 -51 0
5 50 52 0
5 -50 -52 0
5 50 55 0
5 -50 -55 0
9 50 58 0
9 -50 -58 0
10 51 54 0
10 -51 -54 0
10 51 55 0
10 -51 -55 0
9 51 59 0
9 -51 -59 0
8 52 53 0
8 -52 -53 0
4 52 54 0
4 -52 -54 0
6 52 58 0
6 -52 -58 0
3 52 60 0
3 -52 -60 0
5 53 55 0
5 -53 -55 0
10 53 56 0
10 -53 -56 0
5 53 59 0
5 -53 -59 0
9 54 57 0
9 -54 -57 0
10 55 56 0
10 -55 -56 0
2 55 57 0
2 -55 -57 0
5 55 58 0
5 -55 -58 0
8 56 57 0
8 -56 -57 0
8 56 59 0
8 -56 -59 0
10 57 58 0
10 -57 -58 0
3 58 59 0
3 -58 -59 0
